solution status: optimal solution found
objective value:                     152633.638749642
d11(0,0)                                            1 	(obj:0)
d11(1,1)                                            1 	(obj:0)
d11(1,2)                                            1 	(obj:0)
d11(1,3)                                            1 	(obj:0)
d11(2,4)                                            1 	(obj:0)
d11(2,7)                                            1 	(obj:0)
d11(2,10)                                           1 	(obj:0)
d11(3,13)                                           1 	(obj:0)
d11(3,14)                                           1 	(obj:0)
d11(3,16)                                           1 	(obj:0)
d11(3,17)                                           1 	(obj:0)
d11(3,19)                                           1 	(obj:0)
d11(3,20)                                           1 	(obj:0)
d11(3,22)                                           1 	(obj:0)
d11(3,23)                                           1 	(obj:0)
d11(3,25)                                           1 	(obj:0)
d11(3,28)                                           1 	(obj:0)
d11(3,29)                                           1 	(obj:0)
d11(3,31)                                           1 	(obj:0)
d11(3,32)                                           1 	(obj:0)
d11(3,34)                                           1 	(obj:0)
d11(3,35)                                           1 	(obj:0)
d11(3,37)                                           1 	(obj:0)
d11(3,38)                                           1 	(obj:0)
d12(2,6)                                            1 	(obj:0)
d12(2,9)                                            1 	(obj:0)
d12(2,12)                                           1 	(obj:0)
d12(3,15)                                           1 	(obj:0)
d12(3,18)                           0.999999999999985 	(obj:0)
d12(3,21)                                           1 	(obj:0)
d12(3,24)                                           1 	(obj:0)
d12(3,27)                                           1 	(obj:0)
d12(3,30)                                           1 	(obj:0)
d12(3,33)                                           1 	(obj:0)
d12(3,36)                                           1 	(obj:0)
d12(3,39)                                           1 	(obj:0)
d21(2,4)                                            1 	(obj:0)
d21(3,13)                                           1 	(obj:0)
d21(3,14)                                           1 	(obj:0)
d21(3,15)                                           1 	(obj:0)
d21(3,16)                                           1 	(obj:0)
d21(3,17)                                           1 	(obj:0)
d21(3,19)                                           1 	(obj:0)
d21(3,22)                                           1 	(obj:0)
d21(3,23)                                           1 	(obj:0)
d21(3,25)                                           1 	(obj:0)
d21(3,31)                                           1 	(obj:0)
y2(3,24)                             960.592982999985 	(obj:0)
y2(3,27)                             960.592982999987 	(obj:0)
y2(3,30)                             960.592982999987 	(obj:0)
y2(3,33)                             960.592982999987 	(obj:0)
y2(3,36)                             960.592982999987 	(obj:0)
y2(3,39)                             960.592982999987 	(obj:0)
STE(1,1)                             7907.43666615007 	(obj:0)
STE(0,0)                                        15750 	(obj:0)
STE(1,2)                             8904.20266948336 	(obj:0)
STE(1,3)                             10121.6548728167 	(obj:0)
STE(2,4)                             5650.67066281672 	(obj:0)
STE(2,5)                             6647.43666615007 	(obj:0)
STE(2,6)                             7560.00000000006 	(obj:0)
STE(2,7)                             6647.43666615001 	(obj:0)
STE(2,8)                             7644.20266948336 	(obj:0)
STE(2,9)                             8556.76600333335 	(obj:0)
STE(2,10)                            7864.88886948339 	(obj:0)
STE(2,11)                            8861.65487281674 	(obj:0)
STE(2,12)                            9774.21820666673 	(obj:0)
STE(3,13)                            3393.90465948337 	(obj:0)
STE(3,14)                            4390.67066281672 	(obj:0)
STE(3,15)                            5303.23399666671 	(obj:0)
STE(3,16)                            4390.67066281672 	(obj:0)
STE(3,17)                            5387.43666615001 	(obj:0)
STE(3,18)                                        6300 	(obj:0)
STE(3,19)                            5303.23399666671 	(obj:0)
STE(3,20)                            6300.00000000006 	(obj:0)
STE(3,21)                            7212.56333385005 	(obj:0)
STE(3,22)                            4390.67066281666 	(obj:0)
STE(3,23)                            5387.43666615001 	(obj:0)
STE(3,24)                                        6300 	(obj:0)
STE(3,25)                            5387.43666615001 	(obj:0)
STE(3,26)                            6384.20266948336 	(obj:0)
STE(3,27)                            7296.76600333335 	(obj:0)
STE(3,28)                                        6300 	(obj:0)
STE(3,29)                            7296.76600333335 	(obj:0)
STE(3,30)                            8209.32933718334 	(obj:0)
STE(3,31)                            5608.12286615004 	(obj:0)
STE(3,32)                            6604.88886948339 	(obj:0)
STE(3,33)                            7517.45220333338 	(obj:0)
STE(3,34)                            6604.88886948339 	(obj:0)
STE(3,35)                            7601.65487281674 	(obj:0)
STE(3,36)                            8514.21820666673 	(obj:0)
STE(3,37)                            7517.45220333338 	(obj:0)
STE(3,38)                            8514.21820666673 	(obj:0)
STE(3,39)                            9426.78154051671 	(obj:0)
y1(3,25)                             897.089403000015 	(obj:0)
y1(3,28)                             897.089403000015 	(obj:0)
y1(3,31)                             897.089403000015 	(obj:0)
y1(3,34)                             897.089403000015 	(obj:0)
y1(3,37)                             897.089403000015 	(obj:0)
BG(3)                                  86.49464667524 	(obj:10)
AVE(1)                               3199.95851117552 	(obj:0)
AVE(2)                               3265.15049132519 	(obj:0)
AVE(3)                               3291.35535332476 	(obj:0)
WG(1)                                3199.95851117552 	(obj:10)
WG(2)                                3265.15049132519 	(obj:10)
WG(3)                                3291.35535332476 	(obj:10)
BG(1)                                5307.70536378868 	(obj:10)
BG(2)                                112.699508674809 	(obj:10)
y1(1,1)                              5924.30700046494 	(obj:0)
y1(1,2)                              5027.21759746497 	(obj:0)
y1(1,3)                              3931.51061446493 	(obj:0)
y1(2,4)                              897.089403000014 	(obj:0)
y1(2,7)                              897.089403000014 	(obj:0)
y1(2,10)                             897.089403000014 	(obj:0)
y1(3,13)                             897.089403000015 	(obj:0)
y1(3,16)                             897.089403000015 	(obj:0)
y1(3,19)                             897.089403000015 	(obj:0)
y1(3,22)                             897.089403000015 	(obj:0)
y2(2,6)                              960.592982999987 	(obj:0)
y2(2,9)                              960.592982999987 	(obj:0)
y2(2,12)                             960.592982999987 	(obj:0)
y2(3,15)                             960.592982999987 	(obj:0)
y2(3,18)                             960.592982999924 	(obj:0)
y2(3,21)                             960.592982999987 	(obj:0)
